
Gurobi 11.0.0 (linux64, gurobi_cl) logging started Tue Nov  4 10:09:35 2025

Set parameter LogFile to value "gurobi.log"
Using license file /trinity/home/fuhrand/micromamba/envs/eraa25/bin/../lib/gurobi.lic
Restricted license - for non-production use only - expires 2025-11-24

Gurobi 11.0.0 (linux64, gurobi_cl) logging started Tue Nov  4 10:09:54 2025

Set parameter LogFile to value "gurobi.log"
Using license file /trinity/home/fuhrand/micromamba/envs/eraa25/bin/../lib/gurobi.lic
Restricted license - for non-production use only - expires 2025-11-24

Gurobi 11.0.0 (linux64, gurobi_cl) logging started Tue Nov  4 10:11:55 2025

Set parameter LogFile to value "gurobi.log"
Using license file /trinity/home/fuhrand/micromamba/envs/eraa25/bin/../lib/gurobi.lic
Restricted license - for non-production use only - expires 2025-11-24

Gurobi 11.0.0 (linux64, gurobi_cl) logging started Tue Nov  4 10:12:02 2025


Gurobi 11.0.0 (linux64, gurobi_cl) logging started Tue Nov  4 10:12:02 2025

Set parameter LogFile to value "gurobi.log"
Using license file /trinity/home/fuhrand/micromamba/envs/eraa25/bin/../lib/gurobi.lic
Restricted license - for non-production use only - expires 2025-11-24
Set parameter LogFile to value "gurobi.log"
Using license file /trinity/home/fuhrand/micromamba/envs/eraa25/bin/../lib/gurobi.lic
Restricted license - for non-production use only - expires 2025-11-24

Gurobi 11.0.0 (linux64, gurobi_cl) logging started Tue Nov  4 10:17:38 2025

Set parameter LogFile to value "gurobi.log"
Using license file /trinity/home/fuhrand/micromamba/envs/eraa25/bin/../lib/gurobi.lic
Restricted license - for non-production use only - expires 2025-11-24

Gurobi 11.0.0 (linux64, gurobi_cl) logging started Tue Nov  4 10:18:06 2025

Set parameter LogFile to value "gurobi.log"
Using license file /trinity/home/fuhrand/micromamba/envs/eraa25/bin/../lib/gurobi.lic
Restricted license - for non-production use only - expires 2025-11-24

Gurobi 11.0.0 (linux64, gurobi_cl) logging started Tue Nov  4 10:18:09 2025

Set parameter LogFile to value "gurobi.log"
Using license file /trinity/home/fuhrand/micromamba/envs/eraa25/bin/../lib/gurobi.lic
Restricted license - for non-production use only - expires 2025-11-24

Gurobi 11.0.0 (linux64, gurobi_cl) logging started Tue Nov  4 10:18:13 2025

Set parameter LogFile to value "gurobi.log"
Using license file /trinity/home/fuhrand/micromamba/envs/eraa25/bin/../lib/gurobi.lic
Restricted license - for non-production use only - expires 2025-11-24

Gurobi 11.0.0 (linux64, gurobi_cl) logging started Tue Nov  4 10:18:46 2025

Set parameter LogFile to value "gurobi.log"
Using license file /trinity/home/fuhrand/micromamba/envs/eraa25/bin/../lib/gurobi.lic
Restricted license - for non-production use only - expires 2025-11-24

Gurobi 11.0.0 (linux64, gurobi_cl) logging started Tue Nov  4 10:18:47 2025

Set parameter LogFile to value "gurobi.log"
Using license file /trinity/home/fuhrand/micromamba/envs/eraa25/bin/../lib/gurobi.lic
Restricted license - for non-production use only - expires 2025-11-24

Gurobi 11.0.0 (linux64, gurobi_cl) logging started Tue Nov  4 10:40:12 2025

Set parameter LogFile to value "gurobi.log"
Using license file /trinity/home/fuhrand/micromamba/envs/eraa25/bin/../lib/gurobi.lic
Restricted license - for non-production use only - expires 2025-11-24

Gurobi 11.0.0 (linux64, gurobi_cl) logging started Tue Nov  4 10:41:08 2025

Set parameter LogFile to value "gurobi.log"
Using license file /trinity/home/fuhrand/micromamba/envs/eraa25/bin/../lib/gurobi.lic
Restricted license - for non-production use only - expires 2025-11-24

Gurobi 11.0.0 (linux64, gurobi_cl) logging started Tue Nov  4 10:42:13 2025

Set parameter LogFile to value "gurobi.log"
Using license file /trinity/home/fuhrand/micromamba/envs/eraa25/bin/../lib/gurobi.lic
Restricted license - for non-production use only - expires 2025-11-24

Gurobi 11.0.0 (linux64, gurobi_cl) logging started Tue Nov  4 10:42:17 2025

Set parameter LogFile to value "gurobi.log"
Using license file /trinity/home/fuhrand/micromamba/envs/eraa25/bin/../lib/gurobi.lic
Restricted license - for non-production use only - expires 2025-11-24

Gurobi 11.0.0 (linux64, gurobi_cl) logging started Tue Nov  4 11:13:32 2025

Set parameter LogFile to value "gurobi.log"
Using license file /trinity/home/fuhrand/micromamba/envs/eraa25/bin/../lib/gurobi.lic
Restricted license - for non-production use only - expires 2025-11-24

Gurobi 11.0.0 (linux64, gurobi_cl) logging started Tue Nov  4 11:13:53 2025

Set parameter LogFile to value "gurobi.log"
Using license file /trinity/home/fuhrand/micromamba/envs/eraa25/bin/../lib/gurobi.lic
Restricted license - for non-production use only - expires 2025-11-24

Gurobi 11.0.0 (linux64, gurobi_cl) logging started Tue Nov  4 11:34:07 2025

Set parameter LogFile to value "gurobi.log"
Using license file /trinity/home/fuhrand/micromamba/envs/eraa25/bin/../lib/gurobi.lic
Restricted license - for non-production use only - expires 2025-11-24

Gurobi 11.0.0 (linux64, gurobi_cl) logging started Tue Nov  4 11:34:28 2025

Set parameter LogFile to value "gurobi.log"
Using license file /trinity/home/fuhrand/micromamba/envs/eraa25/bin/../lib/gurobi.lic
Restricted license - for non-production use only - expires 2025-11-24

Gurobi 11.0.0 (linux64, gurobi_cl) logging started Tue Nov  4 13:35:55 2025

Set parameter LogFile to value "gurobi.log"
Using license file /trinity/home/fuhrand/micromamba/envs/eraa25/bin/../lib/gurobi.lic
Restricted license - for non-production use only - expires 2025-11-24
